g9 0 1 0 10 20030626 0 4 1 4	# problem transpl2
 40 10 1 0 10	# vars, constraints, objectives, ranges, eqns
 0 0	# nonlinear constraints, objectives
 0 0	# network constraints: nonlinear, linear
 0 0 0	# nonlinear vars in constraints, objectives, both
 0 0 0 1	# linear network variables; functions; arith, flags
 0 0 0 0 0	# discrete variables: binary, integer, nonlinear (b,c,o)
 80 40	# nonzeros in Jacobian, gradients
 0 0	# max name lengths: constraints, variables
 0 0 0 0 0	# common exprs: b,c,o,c1,o1
C0
n0
C1
n0
C2
n0
C3
n0
C4
n0
C5
n0
C6
n0
C7
n0
C8
n0
C9
n0
O0 0
n0
r
4 1400
4 2600
4 2900
4 900
4 1200
4 600
4 400
4 1700
4 1100
4 1000
b
2 0
2 0
2 0
2 0
2 0
2 0
2 0
0 0 500
0 0 400
0 0 500
0 0 500
0 0 200
0 0 500
0 0 100
0 0 500
0 0 500
0 0 400
0 0 1000
0 0 100
0 0 500
0 0 500
0 0 500
0 0 400
0 0 500
0 0 500
0 0 200
0 0 500
0 0 100
0 0 500
0 0 500
0 0 700
0 0 500
0 0 500
0 0 100
0 0 500
0 0 500
0 0 1000
0 0 200
0 0 1000
0 0 100
k39
2
4
6
8
10
12
14
16
18
20
22
24
26
28
30
32
34
36
38
40
42
44
46
48
50
52
54
56
58
60
62
64
66
68
70
72
74
76
78
J0 15
0 1
7 1
8 1
9 1
10 1
11 1
12 1
13 1
14 1
15 1
16 1
17 1
18 1
19 1
20 1
J1 16
1 1
21 1
22 1
23 1
24 1
25 1
26 1
27 1
28 1
29 1
30 1
31 1
32 1
33 1
34 1
35 1
J2 9
2 1
3 1
4 1
5 1
6 1
36 1
37 1
38 1
39 1
J3 5
2 1
7 1
8 1
21 1
22 1
J4 8
9 1
10 1
11 1
23 1
24 1
25 1
36 1
37 1
J5 5
3 1
12 1
13 1
26 1
27 1
J6 3
0 1
1 1
4 1
J7 7
5 1
14 1
15 1
16 1
28 1
29 1
30 1
J8 7
17 1
18 1
31 1
32 1
33 1
38 1
39 1
J9 5
6 1
19 1
20 1
34 1
35 1
G0 40
0 14
1 9
2 24
3 17
4 13
5 28
6 20
7 39
8 50
9 14
10 17
11 33
12 11
13 12
14 16
15 23
16 40
17 82
18 98
19 8
20 16
21 27
22 37
23 9
24 19
25 24
26 12
27 32
28 26
29 36
30 47
31 95
32 105
33 129
34 8
35 16
36 14
37 24
38 99
39 140
